300
150 150
1 120 871
2 120 240
3 120 3
4 119 323
5 119 417
6 119 362
7 119 38
8 119 164
9 118 894
10 118 61
11 118 151
12 118 664
13 118 551
14 118 253
15 117 393
16 117 111
17 117 703
18 117 677
19 116 86
20 115 397
21 115 979
22 115 824
23 115 802
24 115 278
25 115 10
26 115 952
27 115 596
28 115 776
29 114 232
30 114 202
31 114 910
32 114 650
33 114 451
34 114 141
35 114 30
36 114 829
37 113 128
38 113 702
39 113 676
40 113 622
41 113 40
42 113 365
43 112 679
44 112 778
45 112 197
46 112 786
47 112 422
48 111 253
49 111 699
50 111 788
51 110 351
52 110 138
53 110 899
54 110 279
55 109 544
56 109 9
57 109 362
58 108 999
59 108 611
60 108 291
61 107 980
62 107 464
63 107 839
64 106 505
65 106 182
66 105 331
67 105 322
68 105 143
69 104 940
70 104 146
71 104 939
72 104 806
73 103 888
74 103 185
75 103 585
76 103 643
77 102 564
78 102 811
79 102 108
80 102 144
81 102 573
82 101 683
83 101 611
84 101 54
85 101 48
86 101 729
87 101 412
88 101 247
89 100 354
90 100 55
91 100 885
92 100 49
93 99 405
94 99 243
95 99 844
96 99 484
97 98 572
98 98 138
99 98 712
100 98 214
101 97 685
102 97 276
103 95 559
104 95 360
105 95 294
106 95 291
107 95 699
108 94 426
109 94 715
110 94 301
111 93 259
112 93 46
113 92 760
114 92 841
115 91 256
116 91 407
117 91 253
118 90 599
119 90 461
120 90 333
121 89 793
122 89 754
123 89 274
124 88 835
125 88 502
126 88 812
127 87 153
128 86 82
129 86 26
130 86 309
131 85 874
132 85 622
133 85 197
134 85 739
135 85 411
136 85 1000
137 84 657
138 84 543
139 84 382
140 84 429
141 83 431
142 83 165
143 83 160
144 83 978
145 83 108
146 83 772
147 81 169
148 81 379
149 81 420
150 80 122
151 79 902
152 79 599
153 78 998
154 78 566
155 78 605
156 77 354
157 77 791
158 77 918
159 76 194
160 76 384
161 76 321
162 75 318
163 74 53
164 74 364
165 74 934
166 73 474
167 73 982
168 73 728
169 72 341
170 72 65
171 71 584
172 71 654
173 71 470
174 71 611
175 71 410
176 71 865
177 71 112
178 71 311
179 71 726
180 70 312
181 70 361
182 70 182
183 69 688
184 69 644
185 69 603
186 68 732
187 68 488
188 68 76
189 68 949
190 68 530
191 67 246
192 67 960
193 67 899
194 67 896
195 66 899
196 66 573
197 66 469
198 65 733
199 65 33
200 64 306
201 64 896
202 64 911
203 64 670
204 63 736
205 62 931
206 62 897
207 62 192
208 62 724
209 62 156
210 62 373
211 62 666
212 62 24
213 61 82
214 60 295
215 59 825
216 58 404
217 58 482
218 58 481
219 57 326
220 57 937
221 57 196
222 57 996
223 56 55
224 56 484
225 56 334
226 56 882
227 55 62
228 55 957
229 54 244
230 54 624
231 53 977
232 52 971
233 52 672
234 51 604
235 51 498
236 51 0
237 50 157
238 50 419
239 50 591
240 50 670
241 49 468
242 49 384
243 49 829
244 49 882
245 49 606
246 48 381
247 47 563
248 47 223
249 47 800
250 46 987
251 46 461
252 46 531
253 46 746
254 46 305
255 46 972
256 46 773
257 44 33
258 44 156
259 44 34
260 44 543
261 43 763
262 43 178
263 43 19
264 43 3
265 43 309
266 43 698
267 42 473
268 42 222
269 42 398
270 41 58
271 40 266
272 40 752
273 39 699
274 39 423
275 38 369
276 38 598
277 38 664
278 37 661
279 37 328
280 37 930
281 36 565
282 36 275
283 36 76
284 35 83
285 35 205
286 35 86
287 35 704
288 34 668
289 33 77
290 33 774
291 33 498
292 32 76
293 32 996
294 31 376
295 31 213
296 31 317
297 31 820
298 30 388
299 30 189
300 30 593
